
n_res = 8;
rcap = [72, 73, 74, 72, 1339, 1357, 1374, 1284];
rtype = [1, 1, 1, 1, 2, 2, 2, 2];
n_tasks = 100;
modes =  [{1, 2, 3}, {4, 5, 6}, {7, 8, 9}, {10, 11, 12}, {13, 14, 15}, {16, 17, 18}, {19, 20, 21}, {22, 23, 24}, {25, 26, 27}, {28, 29, 30}, {31, 32, 33}, {34, 35, 36}, {37, 38, 39}, {40, 41, 42}, {43, 44, 45}, {46, 47, 48}, {49, 50, 51}, {52, 53, 54}, {55, 56, 57}, {58, 59, 60}, {61, 62, 63}, {64, 65, 66}, {67, 68, 69}, {70, 71, 72}, {73, 74, 75}, {76, 77, 78}, {79, 80, 81}, {82, 83, 84}, {85, 86, 87}, {88, 89, 90}, {91, 92, 93}, {94, 95, 96}, {97, 98, 99}, {100, 101, 102}, {103, 104, 105}, {106, 107, 108}, {109, 110, 111}, {112, 113, 114}, {115, 116, 117}, {118, 119, 120}, {121, 122, 123}, {124, 125, 126}, {127, 128, 129}, {130, 131, 132}, {133, 134, 135}, {136, 137, 138}, {139, 140, 141}, {142, 143, 144}, {145, 146, 147}, {148, 149, 150}, {151, 152, 153}, {154, 155, 156}, {157, 158, 159}, {160, 161, 162}, {163, 164, 165}, {166, 167, 168}, {169, 170, 171}, {172, 173, 174}, {175, 176, 177}, {178, 179, 180}, {181, 182, 183}, {184, 185, 186}, {187, 188, 189}, {190, 191, 192}, {193, 194, 195}, {196, 197, 198}, {199, 200, 201}, {202, 203, 204}, {205, 206, 207}, {208, 209, 210}, {211, 212, 213}, {214, 215, 216}, {217, 218, 219}, {220, 221, 222}, {223, 224, 225}, {226, 227, 228}, {229, 230, 231}, {232, 233, 234}, {235, 236, 237}, {238, 239, 240}, {241, 242, 243}, {244, 245, 246}, {247, 248, 249}, {250, 251, 252}, {253, 254, 255}, {256, 257, 258}, {259, 260, 261}, {262, 263, 264}, {265, 266, 267}, {268, 269, 270}, {271, 272, 273}, {274, 275, 276}, {277, 278, 279}, {280, 281, 282}, {283, 284, 285}, {286, 287, 288}, {289, 290, 291}, {292, 293, 294}, {295, 296, 297}, {298, 299, 300}];
succ =  [{24, 20, 19, 17, 15, 14}, {27, 24, 17, 14, 12, 10}, {24, 17, 14, 10, 9}, {27, 22, 21, 18, 17, 12}, {27, 22, 21, 20, 18, 17}, {31, 30, 27, 26, 24, 23, 22, 20, 19}, {31, 27, 26, 24, 22, 20, 18}, {26, 24, 22, 17, 12}, {31, 30, 26, 23, 22, 20, 19}, {31, 26, 22, 20, 18}, {31, 30, 28, 23, 20, 19}, {31, 30, 28, 23, 20}, {31, 30, 28, 23, 20}, {33, 22, 18}, {43, 34, 29, 27, 26, 22}, {34, 33, 29, 27, 25, 23}, {43, 36, 34, 33, 31, 29, 23}, {43, 37, 34, 30, 29, 23}, {44, 43, 42, 37, 36, 35, 34, 33, 32, 29}, {44, 43, 42, 39, 37, 34, 33, 32, 29}, {43, 36, 33, 29, 24}, {46, 44, 42, 38, 37, 35, 28}, {46, 44, 42, 41, 40, 35, 32}, {46, 45, 44, 40, 38, 35}, {46, 44, 43, 37, 35}, {45, 35, 33}, {49, 45, 44, 42, 41, 37}, {41, 39, 36}, {47, 45, 41, 40, 38}, {50, 38, 36}, {50, 49, 48, 47, 46, 44, 42}, {61, 49, 47, 45, 38}, {59, 56, 53, 52, 46, 41}, {56, 55, 52, 50, 45, 41}, {54, 51, 50, 49, 39}, {48, 47, 45, 40}, {57, 55, 54, 50, 48, 47}, {59, 58, 56, 55, 53, 51, 48}, {63, 61, 57, 56, 55, 47}, {61, 58, 56, 55, 53, 49}, {60, 58, 54, 51, 48}, {65, 64, 61, 59, 58, 57, 56, 51}, {72, 64, 61, 59, 57, 55, 52}, {69, 61, 56, 53, 52}, {78, 72, 70, 66, 65, 64, 63, 59, 58, 57}, {70, 64, 63, 62, 60, 58, 55}, {76, 72, 64, 62, 59, 52}, {76, 74, 72, 70, 69, 67, 66, 65, 63, 62}, {70, 69, 64, 60, 57}, {78, 76, 74, 72, 69, 67, 65, 64, 62}, {78, 75, 74, 70, 69, 68, 67, 66}, {79, 78, 73, 70, 68, 65, 58}, {79, 78, 74, 64, 57}, {76, 70, 64, 62, 61}, {81, 76, 75, 74, 71, 69, 66, 65}, {87, 79, 77, 76, 75, 74, 73, 72, 67}, {76, 75, 62}, {92, 87, 77, 75, 74, 67}, {92, 87, 75, 73, 67}, {87, 74, 72, 67}, {84, 77, 74, 73, 68}, {84, 77, 73, 68}, {84, 75, 68}, {92, 81, 75, 71}, {92, 91, 87, 86, 85, 84, 83, 82, 80}, {87, 84, 82, 80, 79, 73}, {85, 82, 81, 71}, {92, 91, 87, 85, 83, 81, 80}, {92, 85, 84, 83, 80, 77}, {100, 92, 91, 87, 85, 83, 81}, {99, 91, 89, 86, 84, 83, 80}, {100, 92, 91, 89, 86, 84, 83}, {100, 99, 91, 89, 86, 83}, {99, 91, 90, 83, 80}, {98, 90, 89, 88, 86, 82}, {97, 96, 85, 84, 83}, {100, 99, 98, 95, 91, 89, 88}, {100, 99, 98, 97, 90, 89, 88}, {99, 96, 91, 90, 89, 88}, {100, 97, 96, 95, 93, 88}, {99, 97, 94, 90, 89}, {100, 99, 96, 94, 93}, {98, 95, 93, 88}, {90, 88}, {98, 89}, {96, 93}, {96, 95}, {94}, {93}, {95}, {97}, {94}, {}, {}, {}, {}, {}, {}, {}, {}];
n_opt = 300;
dur = [1, 9, 12, 11, 14, 22, 6, 24, 25, 9, 23, 29, 11, 25, 26, 8, 9, 12, 19, 20, 22, 1, 8, 10, 5, 6, 12, 10, 11, 16, 11, 21, 30, 13, 16, 30, 6, 10, 28, 11, 22, 24, 16, 26, 29, 6, 15, 27, 24, 28, 30, 10, 17, 23, 2, 4, 13, 2, 4, 16, 2, 15, 29, 18, 24, 27, 1, 23, 24, 4, 5, 15, 13, 14, 20, 6, 16, 24, 7, 11, 30, 12, 18, 20, 8, 16, 27, 5, 8, 30, 5, 19, 29, 1, 12, 15, 14, 18, 28, 4, 7, 9, 7, 16, 21, 14, 25, 27, 9, 11, 26, 1, 10, 29, 10, 19, 20, 5, 11, 23, 9, 18, 26, 19, 24, 26, 2, 22, 23, 12, 18, 24, 8, 9, 30, 11, 16, 24, 1, 9, 24, 12, 19, 28, 5, 21, 30, 15, 24, 29, 5, 8, 13, 1, 21, 29, 9, 22, 24, 6, 7, 26, 1, 2, 27, 9, 21, 27, 1, 13, 28, 17, 18, 26, 5, 19, 28, 3, 4, 5, 11, 15, 26, 12, 25, 28, 18, 19, 22, 13, 25, 28, 8, 24, 25, 2, 14, 29, 1, 16, 26, 17, 21, 29, 1, 15, 30, 1, 6, 7, 6, 8, 20, 2, 17, 23, 5, 17, 24, 3, 5, 6, 15, 16, 20, 15, 17, 18, 1, 4, 30, 4, 8, 20, 6, 16, 17, 4, 20, 23, 14, 16, 29, 9, 14, 19, 3, 12, 16, 3, 15, 29, 3, 4, 13, 11, 16, 26, 10, 11, 28, 26, 27, 28, 6, 18, 27, 15, 27, 30, 7, 15, 24, 9, 11, 21, 9, 10, 20, 14, 15, 28, 6, 12, 29, 1, 8, 16, 18, 25, 29, 3, 6, 22, 12, 13, 14, 1, 6, 26];
rreq = [|23, 20, 15, 14, 13, 12, 14, 6, 4, 24, 18, 11, 6, 4, 3, 7, 4, 2, 28, 27, 27, 24, 23, 23, 14, 12, 7, 10, 10, 7, 23, 22, 20, 24, 17, 12, 17, 17, 17, 21, 13, 9, 19, 15, 12, 19, 14, 11, 4, 3, 3, 13, 8, 4, 25, 21, 20, 22, 17, 15, 18, 16, 14, 19, 15, 13, 13, 10, 9, 29, 23, 9, 23, 13, 12, 22, 21, 21, 9, 9, 8, 13, 9, 4, 25, 12, 3, 17, 11, 8, 25, 12, 11, 20, 12, 5, 24, 21, 18, 15, 15, 14, 29, 27, 27, 27, 21, 20, 21, 21, 20, 14, 11, 5, 30, 29, 29, 17, 13, 6, 23, 17, 14, 7, 5, 4, 7, 4, 3, 15, 12, 9, 21, 19, 18, 25, 11, 10, 21, 17, 11, 25, 17, 16, 16, 13, 12, 23, 17, 12, 20, 17, 15, 10, 9, 8, 25, 24, 24, 16, 11, 4, 25, 14, 8, 13, 10, 7, 17, 12, 7, 14, 13, 11, 3, 2, 1, 15, 13, 5, 23, 22, 21, 2, 2, 2, 26, 18, 7, 15, 15, 9, 19, 17, 17, 17, 12, 11, 11, 10, 8, 23, 16, 7, 24, 23, 21, 13, 12, 7, 17, 15, 10, 26, 15, 8, 21, 21, 21, 24, 24, 24, 21, 21, 20, 19, 12, 9, 29, 18, 14, 9, 7, 3, 4, 3, 3, 23, 23, 23, 28, 27, 27, 24, 19, 11, 15, 13, 13, 26, 25, 19, 26, 26, 26, 14, 13, 11, 21, 21, 19, 18, 17, 17, 4, 3, 3, 12, 12, 10, 29, 27, 27, 10, 7, 2, 2, 2, 2, 14, 14, 7, 19, 19, 19, 17, 9, 3, 16, 12, 9, 13, 12, 12, 15, 11, 3, 11, 8, 4
 |22, 17, 15, 24, 23, 17, 28, 25, 24, 13, 9, 2, 19, 17, 15, 24, 15, 9, 17, 17, 16, 19, 17, 13, 21, 16, 10, 30, 24, 21, 13, 11, 3, 27, 22, 20, 6, 4, 3, 30, 26, 25, 10, 8, 8, 18, 10, 7, 20, 13, 9, 22, 18, 10, 10, 8, 8, 15, 14, 10, 29, 27, 26, 19, 13, 10, 21, 15, 5, 23, 17, 13, 27, 25, 25, 18, 17, 16, 25, 22, 18, 21, 18, 11, 20, 16, 10, 24, 24, 24, 24, 21, 19, 26, 14, 3, 17, 12, 9, 23, 22, 19, 19, 18, 9, 22, 21, 19, 28, 27, 25, 30, 25, 19, 23, 18, 8, 12, 10, 9, 26, 26, 26, 23, 22, 22, 15, 12, 4, 24, 22, 16, 19, 19, 18, 25, 23, 22, 26, 20, 12, 29, 27, 26, 23, 21, 21, 18, 17, 16, 28, 25, 23, 8, 6, 5, 9, 6, 2, 5, 5, 3, 18, 15, 13, 21, 20, 19, 17, 16, 15, 9, 6, 4, 26, 15, 11, 24, 23, 23, 24, 21, 15, 7, 5, 4, 26, 25, 23, 21, 19, 18, 16, 16, 16, 21, 20, 19, 28, 26, 26, 23, 21, 21, 9, 8, 4, 15, 13, 9, 25, 18, 13, 24, 17, 13, 20, 16, 7, 21, 12, 9, 7, 6, 5, 28, 28, 25, 18, 12, 8, 28, 17, 9, 14, 7, 4, 26, 25, 24, 30, 24, 21, 14, 12, 8, 21, 19, 11, 22, 19, 17, 15, 12, 10, 17, 14, 12, 21, 17, 12, 23, 23, 23, 11, 10, 9, 2, 2, 2, 25, 24, 22, 29, 25, 24, 6, 2, 2, 19, 15, 12, 18, 18, 17, 27, 21, 18, 23, 18, 16, 21, 18, 14, 10, 7, 5, 10, 8, 7
 |12, 7, 1, 9, 6, 5, 19, 17, 16, 19, 15, 13, 25, 17, 7, 26, 21, 16, 25, 20, 16, 11, 7, 6, 14, 7, 7, 17, 16, 8, 10, 10, 10, 11, 6, 4, 6, 6, 6, 21, 18, 18, 17, 15, 15, 13, 9, 7, 23, 9, 4, 21, 19, 15, 18, 15, 11, 20, 18, 17, 22, 13, 5, 14, 13, 9, 20, 15, 10, 12, 12, 11, 17, 13, 11, 18, 13, 10, 26, 25, 24, 19, 10, 5, 22, 20, 18, 13, 10, 9, 12, 11, 4, 13, 11, 5, 11, 10, 10, 12, 10, 10, 28, 25, 22, 19, 14, 8, 27, 24, 23, 12, 11, 10, 16, 15, 8, 25, 18, 12, 7, 4, 3, 17, 14, 12, 19, 15, 7, 12, 11, 10, 19, 13, 5, 22, 17, 11, 9, 9, 9, 6, 3, 3, 13, 9, 8, 26, 26, 26, 12, 8, 4, 21, 17, 10, 15, 12, 6, 25, 24, 21, 22, 20, 17, 13, 8, 7, 20, 20, 16, 30, 22, 20, 26, 23, 18, 13, 11, 9, 24, 20, 14, 7, 4, 3, 7, 6, 6, 26, 23, 22, 23, 16, 8, 17, 15, 5, 19, 18, 18, 23, 16, 3, 18, 7, 2, 23, 19, 14, 27, 22, 18, 26, 12, 5, 12, 10, 10, 12, 12, 11, 17, 12, 7, 9, 8, 7, 24, 20, 10, 7, 3, 1, 26, 26, 22, 23, 19, 13, 28, 27, 25, 18, 17, 16, 29, 25, 25, 17, 10, 8, 16, 15, 15, 25, 21, 14, 13, 13, 13, 8, 5, 5, 23, 14, 12, 26, 12, 8, 25, 22, 18, 21, 16, 13, 23, 18, 11, 29, 19, 17, 14, 13, 13, 23, 20, 18, 13, 6, 6, 27, 22, 21, 23, 21, 17, 26, 10, 7
 |16, 13, 12, 7, 4, 3, 13, 13, 13, 19, 10, 7, 14, 10, 7, 24, 19, 15, 23, 17, 14, 21, 17, 9, 27, 21, 13, 6, 5, 3, 12, 9, 3, 27, 26, 26, 19, 18, 18, 20, 11, 3, 21, 12, 10, 20, 15, 12, 20, 16, 12, 28, 19, 8, 16, 14, 11, 24, 23, 23, 15, 12, 8, 24, 24, 23, 7, 7, 6, 20, 17, 8, 15, 12, 11, 12, 5, 4, 17, 15, 14, 21, 15, 12, 20, 18, 13, 28, 22, 14, 27, 20, 17, 24, 23, 23, 17, 13, 7, 5, 4, 4, 16, 11, 9, 13, 12, 11, 21, 18, 16, 17, 12, 11, 17, 16, 14, 19, 9, 3, 13, 7, 2, 21, 19, 14, 22, 22, 15, 29, 25, 23, 25, 19, 11, 30, 30, 30, 6, 5, 5, 25, 17, 11, 23, 19, 18, 26, 22, 22, 20, 19, 19, 15, 8, 6, 24, 17, 9, 25, 23, 17, 17, 14, 11, 19, 18, 16, 28, 22, 19, 10, 9, 9, 3, 3, 3, 20, 16, 14, 27, 26, 24, 24, 17, 13, 23, 23, 22, 23, 14, 5, 7, 7, 5, 15, 9, 4, 21, 15, 3, 18, 17, 16, 18, 13, 13, 26, 24, 19, 24, 19, 17, 18, 12, 10, 25, 18, 14, 19, 16, 14, 22, 20, 13, 29, 28, 26, 21, 14, 7, 25, 21, 14, 2, 1, 1, 18, 17, 14, 17, 15, 13, 24, 21, 19, 30, 24, 22, 10, 10, 10, 24, 22, 18, 19, 15, 13, 23, 19, 16, 26, 25, 24, 23, 13, 10, 15, 12, 12, 22, 21, 19, 23, 18, 9, 14, 11, 6, 28, 19, 11, 20, 20, 19, 21, 18, 8, 16, 12, 12, 21, 21, 18, 23, 22, 18, 24, 19, 17
 |20, 15, 5, 19, 18, 15, 12, 10, 10, 23, 22, 16, 14, 12, 10, 15, 14, 12, 20, 18, 15, 20, 14, 8, 27, 26, 25, 4, 4, 4, 20, 19, 18, 6, 5, 1, 11, 7, 6, 26, 26, 22, 16, 12, 5, 16, 11, 10, 28, 18, 14, 19, 18, 11, 21, 20, 20, 24, 18, 6, 24, 17, 10, 4, 4, 4, 18, 18, 18, 20, 16, 11, 19, 11, 4, 18, 13, 8, 26, 24, 23, 11, 9, 5, 17, 10, 4, 17, 15, 7, 10, 10, 10, 19, 11, 5, 21, 18, 15, 26, 24, 23, 21, 21, 21, 14, 14, 9, 7, 5, 2, 17, 14, 4, 28, 27, 26, 19, 18, 18, 9, 7, 6, 21, 20, 18, 21, 19, 3, 9, 8, 8, 24, 13, 3, 16, 15, 6, 17, 16, 13, 19, 12, 11, 5, 5, 3, 12, 8, 6, 21, 21, 21, 8, 6, 5, 20, 17, 9, 27, 21, 16, 24, 18, 12, 17, 14, 7, 27, 23, 19, 8, 7, 6, 22, 16, 9, 14, 13, 13, 17, 16, 15, 27, 25, 24, 3, 3, 3, 12, 11, 11, 25, 24, 24, 18, 15, 10, 23, 13, 4, 26, 19, 18, 19, 14, 14, 12, 11, 11, 22, 20, 12, 15, 11, 5, 26, 24, 22, 27, 22, 20, 12, 10, 9, 25, 22, 15, 21, 19, 19, 24, 17, 12, 24, 16, 12, 19, 14, 13, 28, 20, 11, 16, 15, 13, 16, 14, 14, 6, 3, 1, 29, 28, 27, 15, 10, 10, 14, 14, 11, 28, 28, 26, 18, 15, 12, 10, 10, 7, 18, 18, 18, 21, 20, 18, 8, 4, 3, 10, 7, 4, 25, 17, 11, 26, 21, 9, 19, 11, 10, 28, 27, 27, 21, 20, 13, 8, 8, 8
 |21, 20, 20, 25, 17, 9, 7, 4, 3, 29, 29, 29, 16, 10, 8, 21, 20, 16, 15, 12, 10, 13, 13, 13, 21, 16, 15, 18, 15, 9, 24, 22, 18, 25, 24, 23, 21, 16, 6, 12, 8, 4, 16, 14, 13, 29, 28, 28, 21, 19, 15, 28, 18, 13, 5, 4, 4, 23, 17, 8, 26, 23, 17, 24, 19, 12, 26, 25, 23, 15, 7, 7, 2, 1, 1, 22, 20, 15, 17, 16, 8, 24, 18, 14, 20, 16, 15, 12, 12, 11, 17, 16, 10, 25, 22, 17, 8, 7, 6, 22, 16, 7, 15, 14, 13, 26, 23, 21, 21, 18, 17, 19, 19, 16, 23, 14, 2, 8, 6, 5, 11, 9, 8, 17, 7, 4, 17, 15, 13, 21, 14, 13, 16, 12, 10, 28, 22, 13, 22, 12, 6, 22, 19, 3, 27, 26, 26, 21, 16, 7, 7, 7, 5, 17, 16, 16, 12, 8, 3, 4, 3, 1, 26, 18, 10, 18, 14, 7, 19, 13, 6, 19, 15, 9, 14, 9, 5, 10, 9, 4, 27, 15, 9, 26, 24, 23, 12, 12, 7, 17, 14, 12, 18, 15, 13, 18, 16, 16, 23, 23, 19, 13, 7, 7, 16, 10, 9, 27, 18, 14, 18, 17, 17, 21, 21, 21, 26, 17, 4, 24, 20, 7, 19, 15, 14, 25, 18, 14, 24, 18, 11, 17, 13, 12, 21, 19, 15, 25, 20, 19, 24, 19, 18, 12, 10, 6, 28, 25, 23, 10, 4, 4, 25, 18, 12, 23, 22, 21, 15, 13, 11, 22, 18, 15, 4, 4, 3, 30, 22, 14, 6, 5, 5, 21, 20, 14, 21, 20, 20, 21, 12, 11, 21, 17, 15, 23, 23, 23, 5, 5, 5, 23, 15, 12, 12, 12, 12, 12, 9, 4
 |27, 27, 27, 17, 17, 16, 28, 28, 27, 14, 7, 5, 20, 19, 18, 19, 17, 16, 15, 14, 13, 15, 14, 10, 29, 20, 15, 22, 10, 5, 11, 9, 8, 15, 12, 11, 14, 14, 11, 12, 10, 6, 28, 17, 6, 23, 17, 9, 11, 10, 10, 19, 17, 10, 14, 11, 7, 25, 20, 18, 17, 15, 13, 25, 23, 17, 21, 21, 19, 26, 26, 20, 19, 12, 7, 24, 23, 22, 28, 24, 22, 16, 12, 4, 20, 17, 6, 27, 25, 24, 18, 16, 4, 12, 11, 11, 29, 24, 18, 24, 14, 2, 5, 4, 3, 9, 8, 5, 14, 14, 13, 21, 18, 10, 25, 21, 18, 19, 19, 18, 11, 11, 11, 13, 12, 6, 22, 12, 2, 7, 5, 5, 15, 13, 8, 27, 17, 16, 23, 17, 9, 28, 28, 27, 25, 15, 4, 22, 14, 9, 4, 3, 2, 22, 19, 10, 27, 27, 27, 23, 20, 20, 17, 17, 17, 21, 20, 20, 17, 17, 9, 13, 10, 7, 13, 9, 3, 13, 11, 4, 20, 17, 15, 15, 8, 8, 22, 19, 15, 27, 20, 17, 19, 16, 13, 22, 21, 21, 10, 10, 6, 23, 13, 4, 15, 13, 13, 24, 24, 19, 13, 8, 1, 24, 23, 22, 16, 13, 6, 8, 4, 2, 24, 22, 22, 12, 12, 12, 14, 14, 12, 22, 16, 10, 17, 11, 8, 30, 28, 25, 29, 20, 16, 16, 15, 13, 18, 17, 14, 17, 14, 11, 27, 24, 20, 17, 15, 9, 9, 7, 5, 12, 7, 5, 14, 10, 5, 12, 10, 3, 22, 17, 8, 23, 13, 12, 27, 24, 17, 20, 18, 13, 23, 21, 21, 24, 15, 11, 19, 18, 16, 20, 14, 8, 20, 17, 16, 11, 9, 6
 |21, 19, 15, 21, 12, 11, 25, 19, 17, 14, 10, 7, 16, 13, 13, 16, 15, 4, 22, 21, 15, 15, 12, 8, 14, 14, 12, 12, 12, 11, 21, 18, 18, 22, 22, 22, 12, 10, 6, 21, 18, 11, 15, 10, 6, 30, 30, 30, 13, 11, 9, 16, 13, 11, 14, 13, 10, 24, 20, 19, 27, 18, 3, 5, 3, 3, 20, 20, 18, 18, 17, 16, 13, 12, 11, 24, 20, 20, 26, 18, 16, 20, 11, 8, 11, 10, 10, 3, 3, 2, 15, 12, 6, 10, 9, 6, 12, 9, 9, 13, 7, 5, 20, 19, 11, 16, 15, 11, 10, 7, 7, 20, 18, 14, 19, 17, 12, 19, 18, 18, 8, 6, 3, 15, 12, 10, 25, 16, 15, 4, 2, 2, 21, 14, 8, 23, 22, 20, 17, 13, 13, 13, 12, 12, 10, 6, 4, 13, 13, 6, 11, 11, 11, 29, 14, 5, 23, 20, 16, 4, 4, 2, 29, 24, 20, 24, 22, 21, 21, 19, 17, 20, 20, 12, 21, 14, 7, 23, 20, 18, 25, 17, 10, 4, 4, 2, 9, 7, 7, 11, 7, 6, 10, 7, 6, 29, 15, 11, 26, 26, 24, 19, 13, 12, 11, 7, 6, 22, 20, 4, 22, 18, 15, 14, 11, 10, 18, 16, 13, 17, 9, 5, 20, 18, 14, 17, 16, 13, 20, 14, 6, 24, 23, 21, 22, 18, 12, 21, 17, 11, 30, 25, 18, 26, 20, 14, 22, 14, 8, 4, 4, 3, 28, 24, 22, 3, 3, 2, 11, 10, 8, 28, 11, 10, 21, 18, 18, 23, 22, 13, 19, 17, 17, 19, 18, 15, 25, 21, 19, 21, 13, 6, 26, 19, 9, 11, 10, 6, 3, 3, 3, 15, 14, 14, 26, 18, 18, 9, 9, 9|];